c
c start with comments
c
p cnf 26 40
-10 7 -4 -6 4 0
4 -5 8 0
-20 23 23 -16 -7 13 0
-14 25 -11 -18 -4 0
13 21 23 0
-12 25 21 23 -26 0
8 -26 17 0
-20 23 -22 3 0
-3 -23 -5 26 0
20 13 -24 23 9 0
-26 -11 11 -25 -11 -9 0
16 -1 -17 6 0
-1 -12 13 -19 0
-22 24 12 -22 -1 0
19 10 -13 -18 8 0
19 -16 -14 0
11 -16 0
21 -19 7 0
-4 18 0
9 15 -11 -11 18 4 0
4 15 -22 -8 -12 0
4 -2 12 -25 12 -1 0
12 -18 0
25 -9 0
16 -13 -17 -17 0
12 14 9 9 -12 -5 0
24 -23 0
-19 22 -12 4 0
26 -1 17 25 0
22 24 0
-15 8 8 -19 0
17 16 -25 0
17 -26 16 0
15 10 13 0
10 22 0
10 15 0
23 -23 20 -5 0
-4 6 -11 0
-14 9 7 0
-7 9 0